%%%mzn-stat: initTime=0.00375197
%%%mzn-stat: objective=387
%%%mzn-stat: nodes=5079
%%%mzn-stat: restarts=0
%%%mzn-stat: peakDepth=107
%%%mzn-stat: solveTime=0.414063647
%%%mzn-stat: variables=358
%%%mzn-stat: propagators=431
%%%mzn-stat: failures=3975
%%%mzn-stat: propagations=488532
%%%mzn-stat: nogoods=3975
%%%mzn-stat: AverageConflictSize=11.964276729559748
%%%mzn-stat: NumUnitNogoodsLearned=386
%%%mzn-stat: AverageLearnedNogoodLength=33.577358490566034
%%%mzn-stat: AverageBacktrackAmount=0
%%%mzn-stat: AverageLbd=7.554716981132075
%%%mzn-stat-end
maxleg = 387;
succ = array1d(1..20,[7, 13, 18, 9, 19, 15, 20, 1, 2, 6, 17, 11, 8, 3, 4, 14, 5, 10, 16, 12]);
% time elapsed: 0.76 s
----------
==========
% time elapsed: 0.76 s
%%%mzn-stat: initTime=0.00375197
%%%mzn-stat: objective=387
%%%mzn-stat: nodes=5079
%%%mzn-stat: restarts=0
%%%mzn-stat: peakDepth=107
%%%mzn-stat: solveTime=0.414066841
%%%mzn-stat: variables=358
%%%mzn-stat: propagators=431
%%%mzn-stat: failures=3975
%%%mzn-stat: propagations=488532
%%%mzn-stat: nogoods=3975
%%%mzn-stat: AverageConflictSize=11.964276729559748
%%%mzn-stat: NumUnitNogoodsLearned=386
%%%mzn-stat: AverageLearnedNogoodLength=33.577358490566034
%%%mzn-stat: AverageBacktrackAmount=0
%%%mzn-stat: AverageLbd=7.554716981132075
%%%mzn-stat-end
